(set-info :Origin "This instance was generated by: BanditFuzz-- an RL fuzzer for SMT solvers" )
(set-info :Author "Joe Scott, Fed Mora, Vijay Ganesh" )
(set-info :Contact "Joe Scott, joseph.scott@uwaterloo.ca")
(set-logic QF_BV)
(declare-const bool_0 Bool)
(declare-const bool_1 Bool)
(declare-const bool_2 Bool)
(declare-const bool_3 Bool)
(declare-const bool_4 Bool)
(declare-const bv_0 (_ BitVec 32))
(declare-const bv_1 (_ BitVec 32))
(declare-const bv_2 (_ BitVec 32))
(declare-const bv_3 (_ BitVec 32))
(declare-const bv_4 (_ BitVec 32))
(assert (bvult (bvnor (bvashr bv_1 #xf1637a81 ) (bvor bv_4 #xb77c25aa )) (bvashr (bvurem #xecdd4850  bv_1) (bvlshr bv_0 #x7abb9184 ))))
(assert (bvslt (bvand (bvsmod bv_3 #x1519ca54 ) (bvand bv_2 #xe7c322a3 )) (bvsrem (bvlshr bv_1 bv_1) (bvand #xe4012fab  bv_0))))
(assert (bvule (bvxor (bvnor #xf57a23c4  #x1d2fc389 ) (bvshl #xa64e5233  bv_3)) (bvurem (bvsmod #xc514f5f2  bv_0) (bvashr #xd362fbb3  #x43f3c466 ))))
(assert (=> (or (bvsge bv_1 #x7ad68aba ) (bvsge #xc8aa2ab4  #xab2ed7c1 )) (bvslt (bvurem #x5467aa30  #xd5fe2735 ) (bvxor #xc4f4857c  bv_2))))
(assert (bvule (bvmul (bvxnor #xff1814d5  #x14972291 ) (bvmul #xdbba6b76  #xd321f6f2 )) (bvlshr (bvshl #x49e724a0  bv_2) (bvshl bv_1 bv_4))))
(check-sat)
(exit)
